\ This file has been generated by DOcplex
\ ENCODING=ISO-8859-1
\Problem name: GridSmall problem

Minimize
 obj: V
Subject To
 c1: V - 0.070000000000 a1_u0_x6 - 0.020000000000 a1_u1_x6
     - 0.020000000000 a1_u2_x6 - 0.070000000000 a1_u3_x6 >= 0
 c2: V - 0.120000000000 a1_u0_x6 - 0.070000000000 a1_u1_x6
     - 0.070000000000 a1_u2_x6 - 0.370000000000 a1_u3_x6 >= 0
 c3: V - 0.370000000000 a1_u0_x6 - 0.070000000000 a1_u1_x6
     - 0.070000000000 a1_u2_x6 - 0.120000000000 a1_u3_x6 >= 0
 c4: V - 0.070000000000 a1_u0_x6 - 0.020000000000 a1_u1_x6
     - 0.020000000000 a1_u2_x6 - 0.070000000000 a1_u3_x6 >= 0
 c5: V >= 0
 c6: a1_u0_x0 + a1_u1_x0 + a1_u2_x0 + a1_u3_x0 + a1_u4_x0 = 1
 c7: a1_u0_x1 + a1_u1_x1 + a1_u2_x1 + a1_u3_x1 + a1_u4_x1 = 1
 c8: a1_u0_x2 + a1_u1_x2 + a1_u2_x2 + a1_u3_x2 + a1_u4_x2 = 1
 c9: a1_u0_x3 + a1_u1_x3 + a1_u2_x3 + a1_u3_x3 + a1_u4_x3 = 1
 c10: a1_u0_x4 + a1_u1_x4 + a1_u2_x4 + a1_u3_x4 + a1_u4_x4 = 1
 c11: a1_u0_x5 + a1_u1_x5 + a1_u2_x5 + a1_u3_x5 + a1_u4_x5 = 1
 c12: a1_u0_x6 + a1_u1_x6 + a1_u2_x6 + a1_u3_x6 + a1_u4_x6 = 1
 c13: a1_u0_x7 + a1_u1_x7 + a1_u2_x7 + a1_u3_x7 + a1_u4_x7 = 1
 c14: a1_u0_x8 + a1_u1_x8 + a1_u2_x8 + a1_u3_x8 + a1_u4_x8 = 1
 c15: a1_u0_x9 + a1_u1_x9 + a1_u2_x9 + a1_u3_x9 + a1_u4_x9 = 1
 c16: a1_u0_x10 + a1_u1_x10 + a1_u2_x10 + a1_u3_x10 + a1_u4_x10 = 1
 c17: a1_u0_x11 + a1_u1_x11 + a1_u2_x11 + a1_u3_x11 + a1_u4_x11 = 1
 c18: a1_u0_x12 + a1_u1_x12 + a1_u2_x12 + a1_u3_x12 + a1_u4_x12 = 1
 c19: a1_u0_x13 + a1_u1_x13 + a1_u2_x13 + a1_u3_x13 + a1_u4_x13 = 1
 c20: a1_u0_x14 + a1_u1_x14 + a1_u2_x14 + a1_u3_x14 + a1_u4_x14 = 1
 c21: a1_u0_x15 + a1_u1_x15 + a1_u2_x15 + a1_u3_x15 + a1_u4_x15 = 1

Bounds
       V Free
End
